(set-option :produce-models true); benchmark generated from python API
(set-info :status unknown)
(declare-fun l_1_0_9 () Real)
(declare-fun l_1_0_8 () Real)
(declare-fun l_1_0_6 () Real)
(declare-fun l_1_0_4 () Real)
(declare-fun l_1_0_1 () Real)
(declare-fun _a_0_ () Real)
(declare-fun l_1_0_7 () Real)
(declare-fun l_1_0_3 () Real)
(declare-fun l_1_0_2 () Real)
(declare-fun l_1_0_10 () Real)
(declare-fun _a_1_ () Real)
(declare-fun l_1_0_5 () Real)
(declare-fun l_1_0_11 () Real)
(declare-fun _a_2_ () Real)
(declare-fun l_1_1_7 () Real)
(declare-fun l_1_1_5 () Real)
(declare-fun l_1_1_4 () Real)
(declare-fun l_1_1_3 () Real)
(declare-fun l_1_1_2 () Real)
(declare-fun l_1_1_15 () Real)
(declare-fun l_1_1_14 () Real)
(declare-fun l_1_1_13 () Real)
(declare-fun l_1_1_11 () Real)
(declare-fun l_1_1_10 () Real)
(declare-fun l_1_1_9 () Real)
(declare-fun l_1_1_8 () Real)
(declare-fun l_1_1_6 () Real)
(declare-fun l_1_1_12 () Real)
(declare-fun l_1_1_1 () Real)
(declare-fun l_1_1_17 () Real)
(declare-fun l_1_1_16 () Real)
(declare-fun l_1_2_7 () Real)
(declare-fun l_1_2_5 () Real)
(declare-fun l_1_2_4 () Real)
(declare-fun l_1_2_3 () Real)
(declare-fun l_1_2_2 () Real)
(declare-fun l_1_2_15 () Real)
(declare-fun l_1_2_14 () Real)
(declare-fun l_1_2_13 () Real)
(declare-fun l_1_2_12 () Real)
(declare-fun l_1_2_11 () Real)
(declare-fun l_1_2_9 () Real)
(declare-fun l_1_2_8 () Real)
(declare-fun l_1_2_6 () Real)
(declare-fun l_1_2_10 () Real)
(declare-fun l_1_2_1 () Real)
(declare-fun l_1_2_16 () Real)
(declare-fun l_1_2_17 () Real)
(assert
 (let ((?x28 (* l_1_0_9 l_1_0_9)))
 (let ((?x509 (- (- (- (- (- _a_0_ l_1_0_1) l_1_0_4) l_1_0_6) l_1_0_8) ?x28)))
 (= ?x509 0.0))))
(assert
 (let ((?x461 (- (- _a_1_ (* (* 2.0 l_1_0_10) l_1_0_9)) (* 1.0 l_1_0_2))))
 (= (- (- ?x461 (* 1.0 l_1_0_3)) (* 1.0 l_1_0_7)) 0.0)))
(assert
 (let ((?x398 (+ (- (- _a_2_ (* l_1_0_10 l_1_0_10)) (* l_1_0_11 l_1_0_11)) l_1_0_2)))
 (= (+ (- (+ ?x398 l_1_0_3) (* 1.0 l_1_0_5)) l_1_0_7) 0.0)))
(assert
 (= (* 2.0 l_1_0_5) 0.0))
(assert
 (= (- l_1_0_5) 0.0))
(assert
 (>= l_1_0_1 0.0))
(assert
 (>= l_1_0_2 0.0))
(assert
 (>= l_1_0_3 0.0))
(assert
 (>= l_1_0_4 0.0))
(assert
 (>= l_1_0_5 0.0))
(assert
 (>= l_1_0_6 0.0))
(assert
 (>= l_1_0_7 0.0))
(assert
 (>= l_1_0_8 0.0))
(assert
 (>= l_1_0_9 0.0))
(assert
 (>= l_1_0_11 0.0))
(assert
 (let ((?x247 (* (/ 2601.0 10000.0) l_1_1_5)))
 (let ((?x280 (* (/ 51.0 100.0) l_1_1_4)))
 (let ((?x279 (* (/ 51.0 100.0) l_1_1_3)))
 (let ((?x278 (* l_1_1_15 l_1_1_15)))
 (let ((?x297 (* (/ 51.0 100.0) l_1_1_10)))
 (let ((?x299 (* _a_0_ l_1_1_8)))
 (let ((?x19 (+ (- (* (- _a_0_) l_1_1_1) (* _a_0_ l_1_1_12)) (* (* (/ 51.0 100.0) _a_0_) l_1_1_6))))
 (let ((?x141 (- (+ (+ (- ?x19 ?x299) (* (* (/ 51.0 100.0) _a_0_) l_1_1_9)) ?x297) (* (* l_1_1_11 _a_0_) _a_0_))))
 (let ((?x281 (+ (+ (- (- (- (- ?x141 l_1_1_13) l_1_1_14) ?x278) l_1_1_2) ?x279) ?x280)))
 (= (+ (- (- ?x281 ?x247) l_1_1_7) (/ 3.0 2.0)) 0.0)))))))))))
(assert
 (let ((?x9 (* (/ 47.0 50.0) l_1_1_5)))
 (let ((?x120 (* l_1_1_17 l_1_1_17)))
 (let ((?x121 (* l_1_1_16 l_1_1_16)))
 (let ((?x124 (* _a_2_ l_1_1_8)))
 (let ((?x128 (- (- (- (* (- _a_2_) l_1_1_1) (* _a_2_ l_1_1_12)) ?x124) l_1_1_10)))
 (let ((?x13 (- ?x128 (* l_1_1_11 (+ (* (* 2.0 _a_0_) _a_2_) (* _a_1_ _a_1_))))))
 (let ((?x102 (- (- (- (- (- (- ?x13 ?x121) ?x120) l_1_1_3) l_1_1_4) ?x9) (* l_1_1_6 (- (- _a_0_ (* (/ 7.0 5.0) _a_1_)) (* (/ 51.0 100.0) _a_2_))))))
 (let ((?x104 (- ?x102 (* l_1_1_9 (- (- _a_0_ (* (/ 7.0 5.0) _a_1_)) (* (/ 51.0 100.0) _a_2_))))))
 (= (- ?x104 1.0) 0.0))))))))))
(assert
 (let ((?x439 (* (/ 357.0 250.0) l_1_1_5)))
 (let ((?x501 (* (/ 7.0 5.0) l_1_1_4)))
 (let ((?x499 (* (/ 7.0 5.0) l_1_1_3)))
 (let ((?x368 (* (/ 7.0 5.0) l_1_1_10)))
 (let ((?x371 (* _a_1_ l_1_1_8)))
 (let ((?x366 (* _a_1_ l_1_1_12)))
 (let ((?x474 (* _a_1_ l_1_1_1)))
 (let ((?x367 (- (- (- (* (* (* (- 2.0) _a_0_) _a_1_) l_1_1_11) ?x474) ?x366) ?x371)))
 (let ((?x502 (+ (+ (- (+ ?x367 ?x368) (* (* 2.0 l_1_1_15) l_1_1_16)) ?x499) ?x501)))
 (let ((?x282 (- (- ?x502 ?x439) (* l_1_1_6 (- (* (- (/ 7.0 5.0)) _a_0_) (* (/ 51.0 100.0) _a_1_))))))
 (let ((?x176 (+ (- ?x282 (* l_1_1_9 (- (* (- (/ 7.0 5.0)) _a_0_) (* (/ 51.0 100.0) _a_1_)))) (/ 1.0 2.0))))
 (= ?x176 0.0)))))))))))))
(assert
 (let ((?x493 (* (/ 14.0 5.0) l_1_1_5)))
 (let ((?x323 (- (+ (* (* (* (- 2.0) _a_1_) _a_2_) l_1_1_11) ?x493) (* l_1_1_6 (- _a_1_ (* (/ 7.0 5.0) _a_2_))))))
 (= (- ?x323 (* l_1_1_9 (- _a_1_ (* (/ 7.0 5.0) _a_2_)))) 0.0))))
(assert
 (let ((?x524 (- (- (* (- _a_2_) l_1_1_6) (* _a_2_ l_1_1_9)) (* (* l_1_1_11 _a_2_) _a_2_))))
 (= (- ?x524 l_1_1_5) 0.0)))
(assert
 (>= l_1_1_1 0.0))
(assert
 (>= l_1_1_2 0.0))
(assert
 (>= l_1_1_3 0.0))
(assert
 (>= l_1_1_4 0.0))
(assert
 (>= l_1_1_5 0.0))
(assert
 (>= l_1_1_6 0.0))
(assert
 (>= l_1_1_7 0.0))
(assert
 (>= l_1_1_8 0.0))
(assert
 (>= l_1_1_9 0.0))
(assert
 (>= l_1_1_10 0.0))
(assert
 (>= l_1_1_11 0.0))
(assert
 (>= l_1_1_12 0.0))
(assert
 (>= l_1_1_13 0.0))
(assert
 (>= l_1_1_14 0.0))
(assert
 (>= l_1_1_15 0.0))
(assert
 (>= l_1_1_17 0.0))
(assert
 (let ((?x580 (* (/ 51.0 100.0) l_1_2_5)))
 (let ((?x575 (* (/ 51.0 100.0) l_1_2_3)))
 (let ((?x573 (* (/ 51.0 100.0) l_1_2_2)))
 (let ((?x571 (* l_1_2_15 l_1_2_15)))
 (let ((?x566 (* (/ 2601.0 10000.0) l_1_2_11)))
 (let ((?x563 (* _a_0_ l_1_2_9)))
 (let ((?x561 (* _a_0_ l_1_2_8)))
 (let ((?x559 (* _a_0_ l_1_2_6)))
 (let ((?x558 (- (* (* (- (/ 51.0 100.0)) _a_0_) l_1_2_1) (* (* (/ 51.0 100.0) _a_0_) l_1_2_10))))
 (let ((?x569 (- (- (- (+ (- (- (- ?x558 ?x559) ?x561) ?x563) _a_0_) ?x566) l_1_2_12) l_1_2_13)))
 (let ((?x579 (- (- (- (- (- ?x569 l_1_2_14) ?x571) ?x573) ?x575) (* (* l_1_2_4 _a_0_) _a_0_))))
 (= (- (- ?x579 ?x580) l_1_2_7) 0.0)))))))))))))
(assert
 (let ((?x663 (* (/ 7.0 5.0) l_1_2_5)))
 (let ((?x661 (* (/ 7.0 5.0) l_1_2_3)))
 (let ((?x659 (* (/ 7.0 5.0) l_1_2_2)))
 (let ((?x654 (* (/ 357.0 250.0) l_1_2_11)))
 (let ((?x646 (* (/ 8.0 5.0) _a_1_)))
 (let ((?x643 (* _a_1_ l_1_2_9)))
 (let ((?x641 (* _a_1_ l_1_2_8)))
 (let ((?x639 (* _a_1_ l_1_2_6)))
 (let ((?x644 (- (- (- (* (* (* (- 2.0) _a_0_) _a_1_) l_1_2_4) ?x639) ?x641) ?x643)))
 (let ((?x651 (- (- ?x644 ?x646) (* l_1_2_1 (+ (* (/ 7.0 5.0) _a_0_) (* (/ 51.0 100.0) _a_1_))))))
 (let ((?x655 (- (- ?x651 (* l_1_2_10 (+ (* (/ 7.0 5.0) _a_0_) (* (/ 51.0 100.0) _a_1_)))) ?x654)))
 (let ((?x664 (- (- (- (- ?x655 (* (* 2.0 l_1_2_15) l_1_2_16)) ?x659) ?x661) ?x663)))
 (= ?x664 0.0))))))))))))))
(assert
 (let ((?x768 (* l_1_2_17 l_1_2_17)))
 (let ((?x766 (* l_1_2_16 l_1_2_16)))
 (let ((?x764 (* (/ 47.0 50.0) l_1_2_11)))
 (let ((?x78 (* (/ 51.0 100.0) _a_2_)))
 (let ((?x759 (+ (+ (- _a_0_) (* (/ 7.0 5.0) _a_1_)) ?x78)))
 (let ((?x756 (* (/ 64.0 25.0) _a_2_)))
 (let ((?x753 (* _a_2_ l_1_2_9)))
 (let ((?x751 (* _a_2_ l_1_2_8)))
 (let ((?x757 (+ (- (- (- (* (/ 8.0 5.0) _a_1_) (* _a_2_ l_1_2_6)) ?x751) ?x753) ?x756)))
 (let ((?x767 (- (- (- (- ?x757 (* l_1_2_1 ?x759)) (* l_1_2_10 ?x759)) ?x764) ?x766)))
 (let ((?x773 (- (+ (+ (- ?x767 ?x768) l_1_2_2) l_1_2_3) (* l_1_2_4 (+ (* (* 2.0 _a_0_) _a_2_) (* _a_1_ _a_1_))))))
 (= (+ ?x773 l_1_2_5) 0.0)))))))))))))
(assert
 (let ((?x870 (- (- (* (* (* (- 2.0) _a_1_) _a_2_) l_1_2_4) (* (/ 128.0 25.0) _a_2_)) (* l_1_2_1 (+ (- _a_1_) (* (/ 7.0 5.0) _a_2_))))))
 (let ((?x874 (+ (- ?x870 (* l_1_2_10 (+ (- _a_1_) (* (/ 7.0 5.0) _a_2_)))) (* (/ 14.0 5.0) l_1_2_11))))
 (= ?x874 0.0))))
(assert
 (let ((?x756 (* (/ 64.0 25.0) _a_2_)))
 (let ((?x925 (- (+ (+ (* _a_2_ l_1_2_1) (* _a_2_ l_1_2_10)) ?x756) l_1_2_11)))
 (= (- ?x925 (* (* l_1_2_4 _a_2_) _a_2_)) 0.0))))
(assert
 (>= l_1_2_1 0.0))
(assert
 (>= l_1_2_2 0.0))
(assert
 (>= l_1_2_3 0.0))
(assert
 (>= l_1_2_4 0.0))
(assert
 (>= l_1_2_5 0.0))
(assert
 (>= l_1_2_6 0.0))
(assert
 (>= l_1_2_7 0.0))
(assert
 (>= l_1_2_8 0.0))
(assert
 (>= l_1_2_9 0.0))
(assert
 (>= l_1_2_10 0.0))
(assert
 (>= l_1_2_11 0.0))
(assert
 (>= l_1_2_12 0.0))
(assert
 (>= l_1_2_13 0.0))
(assert
 (>= l_1_2_14 0.0))
(assert
 (>= l_1_2_15 0.0))
(assert
 (>= l_1_2_17 0.0))
(check-sat)
(get-model)